Route #1: 77 78 86 88 82 92 83 79 84 80
Route #2: 76 89 87 94 96 97 95
Route #3: 81 93 85 90 5 11 4 10 18 6 17 3 2 1
Route #4: 99 16 8 9 12 13 14 15 7 91
Route #5: 19 22 21 23 36 29 27 32 33 31 65
Route #6: 58 100 46 43 49 51 48 50 41 39 44 45 40 67 59
Route #7: 56 61 63 57 55
Route #8: 42 47 52 60
Route #9: 37 24 30 74 68 73 38 25 26 35 64
Route #10: 54 98
Route #11: 62 20 34
Route #12: 28 70 72 66 69 71 75 53
Cost 2159.585433155227